# Solution for model count
# Objective value = 23
z#1 0
z#2 0
z#3 0
z#4 0
z#5 0
z#6 0
z#7 0
z#8 0
z#9 1
z#10 0
z#11 0
z#12 0
z#13 0
z#14 0
z#15 0
z#16 0
z#17 0
z#18 0
z#19 0
z#20 0
z#21 0
z#22 0
z#23 0
z#24 0
z#25 0
z#26 0
z#27 0
z#28 0
z#29 0
z#30 0
z#31 0
z#32 0
z#33 0
z#34 0
z#35 0
z#36 0
z#37 0
z#38 0
z#39 0
z#40 0
z#41 0
z#42 1
z#43 0
z#44 0
z#45 0
z#46 0
z#47 0
z#48 0
z#49 0
z#50 0
z#51 1
z#52 0
z#53 0
z#54 0
z#55 0
z#56 0
z#57 0
z#58 0
z#59 0
z#60 0
z#61 0
z#62 0
z#63 0
z#64 0
z#65 0
z#66 0
z#67 0
z#68 0
z#69 1
z#70 0
z#71 0
z#72 0
z#73 0
z#74 0
z#75 0
z#76 0
z#77 0
z#78 0
z#79 0
z#80 0
z#81 0
z#82 0
z#83 0
z#84 0
z#85 0
z#86 0
z#87 0
z#88 0
z#89 0
z#90 0
z#91 0
z#92 0
z#93 0
z#94 0
z#95 0
z#96 0
z#97 0
z#98 0
z#99 1
z#100 0
z#101 0
z#102 0
z#103 0
z#104 0
z#105 0
z#106 0
z#107 0
z#108 0
z#109 0
z#110 0
z#111 0
z#112 0
z#113 0
z#114 0
z#115 0
z#116 0
z#117 0
z#118 0
z#119 0
z#120 0
z#121 0
z#122 0
z#123 0
z#124 0
z#125 0
z#126 0
z#127 0
z#128 0
z#129 0
z#130 0
z#131 0
z#132 0
z#133 0
z#134 0
z#135 0
z#136 0
z#137 0
z#138 0
z#139 0
z#140 0
z#141 0
z#142 0
z#143 0
z#144 0
z#145 0
z#146 0
z#147 0
z#148 0
z#149 0
z#150 0
z#151 1
z#152 1
z#153 0
z#154 0
z#155 0
z#156 0
z#157 0
z#158 0
z#159 0
z#160 0
z#161 0
z#162 0
z#163 0
z#164 0
z#165 0
z#166 0
z#167 0
z#168 0
z#169 0
z#170 0
z#171 0
z#172 0
z#173 0
z#174 0
z#175 0
z#176 0
z#177 0
z#178 0
z#179 0
z#180 0
z#181 0
z#182 0
z#183 0
z#184 1
z#185 0
z#186 0
z#187 0
z#188 0
z#189 0
z#190 0
z#191 0
z#192 0
z#193 0
z#194 0
z#195 1
z#196 0
z#197 0
z#198 0
z#199 0
z#200 0
z#201 0
z#202 0
z#203 0
z#204 0
z#205 0
z#206 0
z#207 0
z#208 0
z#209 0
z#210 0
z#211 0
z#212 0
z#213 0
z#214 0
z#215 0
z#216 0
z#217 0
z#218 0
z#219 0
z#220 0
z#221 0
z#222 0
z#223 0
z#224 0
z#225 0
z#226 0
z#227 0
z#228 0
z#229 0
z#230 0
z#231 0
z#232 0
z#233 0
z#234 0
z#235 0
z#236 0
z#237 0
z#238 0
z#239 0
z#240 0
z#241 0
z#242 0
z#243 0
z#244 0
z#245 0
z#246 0
z#247 0
z#248 0
z#249 0
z#250 0
z#251 0
z#252 0
z#253 0
z#254 0
z#255 0
z#256 0
z#257 0
z#258 0
z#259 0
z#260 0
z#261 0
z#262 0
z#263 0
z#264 0
z#265 0
z#266 0
z#267 0
z#268 0
z#269 0
z#270 0
z#271 0
z#272 0
z#273 0
z#274 0
z#275 0
z#276 0
z#277 0
z#278 0
z#279 0
z#280 0
z#281 0
z#282 0
z#283 0
z#284 0
z#285 0
z#286 0
z#287 0
z#288 0
z#289 0
z#290 0
z#291 0
z#292 0
z#293 0
z#294 0
z#295 0
z#296 0
z#297 0
z#298 1
z#299 0
z#300 0
z#301 0
z#302 0
z#303 0
z#304 0
z#305 0
z#306 0
z#307 0
z#308 0
z#309 0
z#310 0
z#311 0
z#312 0
z#313 0
z#314 0
z#315 0
z#316 0
z#317 0
z#318 0
z#319 0
z#320 0
z#321 0
z#322 0
z#323 0
z#324 0
z#325 0
z#326 0
z#327 0
z#328 0
z#329 1
z#330 0
z#331 0
z#332 0
z#333 0
z#334 0
z#335 0
z#336 0
z#337 0
z#338 0
z#339 0
z#340 0
z#341 0
z#342 0
z#343 0
z#344 0
z#345 0
z#346 0
z#347 0
z#348 0
z#349 0
z#350 0
z#351 0
z#352 0
z#353 0
z#354 1
z#355 0
z#356 0
z#357 1
z#358 0
z#359 0
z#360 0
z#361 0
z#362 0
z#363 1
z#364 0
z#365 0
z#366 0
z#367 0
z#368 0
z#369 0
z#370 0
z#371 0
z#372 0
z#373 0
z#374 0
z#375 0
z#376 0
z#377 0
z#378 0
z#379 0
z#380 0
z#381 0
z#382 0
z#383 0
z#384 0
z#385 0
z#386 0
z#387 0
z#388 0
z#389 0
z#390 0
z#391 0
z#392 0
z#393 0
z#394 0
z#395 0
z#396 1
z#397 0
z#398 0
z#399 0
z#400 0
z#401 0
z#402 0
z#403 0
z#404 0
z#405 0
z#406 0
z#407 0
z#408 0
z#409 0
z#410 0
z#411 0
z#412 0
z#413 0
z#414 0
z#415 0
z#416 0
z#417 0
z#418 0
z#419 0
z#420 0
z#421 0
z#422 0
z#423 0
z#424 0
z#425 0
z#426 0
z#427 0
z#428 0
z#429 0
z#430 0
z#431 0
z#432 0
z#433 0
z#434 0
z#435 0
z#436 0
z#437 0
z#438 0
z#439 0
z#440 0
z#441 0
z#442 0
z#443 0
z#444 0
z#445 0
z#446 0
z#447 0
z#448 0
z#449 0
z#450 0
z#451 0
z#452 0
z#453 0
z#454 1
z#455 0
z#456 0
z#457 0
z#458 0
z#459 0
z#460 0
z#461 0
z#462 0
z#463 0
z#464 0
z#465 0
z#466 0
z#467 0
z#468 0
z#469 0
z#470 0
z#471 0
z#472 0
z#473 0
z#474 0
z#475 0
z#476 1
z#477 0
z#478 0
z#479 0
z#480 0
z#481 0
z#482 0
z#483 0
z#484 0
z#485 0
z#486 0
z#487 0
z#488 0
z#489 0
z#490 0
z#491 0
z#492 0
z#493 0
z#494 0
z#495 0
z#496 0
z#497 0
z#498 0
z#499 1
z#500 0
z#501 0
z#502 0
z#503 0
z#504 0
z#505 0
z#506 0
z#507 0
z#508 0
z#509 0
z#510 0
z#511 0
z#512 0
z#513 0
z#514 0
z#515 0
z#516 0
z#517 0
z#518 1
z#519 0
z#520 0
z#521 0
z#522 0
z#523 0
z#524 0
z#525 0
z#526 0
z#527 0
z#528 0
z#529 0
z#530 0
z#531 0
z#532 0
z#533 0
z#534 0
z#535 0
z#536 0
z#537 0
z#538 0
z#539 0
z#540 0
z#541 0
z#542 0
z#543 0
z#544 0
z#545 0
z#546 0
z#547 0
z#548 0
z#549 0
z#550 0
z#551 0
z#552 0
z#553 0
z#554 0
z#555 0
z#556 0
z#557 0
z#558 0
z#559 0
z#560 0
z#561 0
z#562 0
z#563 0
z#564 0
z#565 0
z#566 0
z#567 0
z#568 0
z#569 0
z#570 0
z#571 0
z#572 0
z#573 0
z#574 0
z#575 0
z#576 0
z#577 0
z#578 0
z#579 0
z#580 0
z#581 0
z#582 0
z#583 0
z#584 0
z#585 0
z#586 0
z#587 0
z#588 0
z#589 0
z#590 0
z#591 0
z#592 0
z#593 0
z#594 0
z#595 0
z#596 0
z#597 0
z#598 0
z#599 0
z#600 0
z#601 0
z#602 0
z#603 1
z#604 0
z#605 0
z#606 0
z#607 1
z#608 0
z#609 0
z#610 0
z#611 0
z#612 0
z#613 0
z#614 0
z#615 0
z#616 0
z#617 0
z#618 0
z#619 0
z#620 0
z#621 0
z#622 0
z#623 0
z#624 0
z#625 0
z#626 0
z#627 0
z#628 0
z#629 1
z#630 0
z#631 0
z#632 1
z#633 0
z#634 0
z#635 0
z#636 0
z#637 0
z#638 0
z#639 0
z#640 0
z#641 0
z#642 0
z#643 0
z#644 0
z#645 0
z#646 0
z#647 0
z#648 0
z#649 0
z#650 0
z#651 0
z#652 0
z#653 0
z#654 0
z#655 0
z#656 0
z#657 0
z#658 0
z#659 0
z#660 0
z#661 0
z#662 0
z#663 0
z#664 0
z#665 0
z#666 0
z#667 0
z#668 0
z#669 0
z#670 0
z#671 0
z#672 0
z#673 0
z#674 0
z#675 0
z#676 0
z#677 0
z#678 0
z#679 0
z#680 0
z#681 0
z#682 0
z#683 0
z#684 0
z#685 0
z#686 0
z#687 0
z#688 0
z#689 0
z#690 0
z#691 0
z#692 0
z#693 0
z#694 0
z#695 0
z#696 0
z#697 0
z#698 0
z#699 0
z#700 0
z#701 0
z#702 0
z#703 0
z#704 0
z#705 0
z#706 0
z#707 0
z#708 0
z#709 0
z#710 0
z#711 0
z#712 0
z#713 0
z#714 0
z#715 0
z#716 0
z#717 0
z#718 0
z#719 0
z#720 0
x#720 0
x#719 0
x#718 0
x#717 0
x#716 0
x#715 0
x#714 0
x#713 0
x#712 0
x#711 0
x#710 0
x#709 0
x#708 0
x#707 0
x#706 0
x#705 0
x#704 0
x#703 0
x#702 0
x#701 0
x#700 0
x#699 0
x#698 0
x#697 0
x#696 0
x#695 0
x#694 0
x#693 0
x#692 0
x#691 0
x#690 0
x#689 0
x#688 0
x#687 0
x#686 0
x#685 0
x#684 0
x#683 0
x#682 0
x#681 0
x#680 0
x#679 0
x#678 0
x#677 0
x#676 0
x#675 0
x#674 0
x#673 0
x#672 0
x#671 0
x#670 0
x#669 0
x#668 0
x#667 0
x#666 0
x#665 0
x#664 0
x#663 0
x#662 0
x#661 0
x#660 0
x#659 0
x#658 0
x#657 0
x#656 0
x#655 0
x#654 0
x#653 0
x#652 0
x#651 0
x#650 0
x#649 0
x#648 0
x#647 0
x#646 0
x#645 0
x#644 0
x#643 0
x#642 0
x#641 0
x#640 0
x#639 0
x#638 0
x#637 0
x#636 0
x#635 0
x#634 0
x#633 0
x#632 235
x#631 0
x#630 0
x#629 560
x#628 0
x#627 0
x#626 0
x#625 0
x#624 0
x#623 0
x#622 0
x#621 0
x#620 0
x#619 0
x#618 0
x#617 0
x#616 0
x#615 0
x#614 0
x#613 0
x#612 0
x#611 0
x#610 0
x#609 0
x#608 0
x#607 508
x#606 0
x#605 0
x#604 0
x#603 118
x#602 0
x#601 0
x#600 0
x#599 0
x#598 0
x#597 0
x#596 0
x#595 0
x#594 0
x#593 0
x#592 0
x#591 0
x#590 0
x#589 0
x#588 0
x#587 0
x#586 0
x#585 0
x#584 0
x#583 0
x#582 0
x#581 0
x#580 0
x#579 0
x#578 0
x#577 0
x#576 0
x#575 0
x#574 0
x#573 0
x#572 0
x#571 0
x#570 0
x#569 0
x#568 0
x#567 0
x#566 0
x#565 0
x#564 0
x#563 0
x#562 0
x#561 0
x#560 0
x#559 0
x#558 0
x#557 0
x#556 0
x#555 0
x#554 0
x#553 0
x#552 0
x#551 0
x#550 0
x#549 0
x#548 0
x#547 0
x#546 0
x#545 0
x#544 0
x#543 0
x#542 0
x#541 0
x#540 0
x#539 0
x#538 0
x#537 0
x#536 0
x#535 0
x#534 0
x#533 0
x#532 0
x#531 0
x#530 0
x#529 0
x#528 0
x#527 0
x#526 0
x#525 0
x#524 0
x#523 0
x#522 0
x#521 0
x#520 0
x#519 0
x#518 355
x#517 0
x#516 0
x#515 0
x#514 0
x#513 0
x#512 0
x#511 0
x#510 0
x#509 0
x#508 0
x#507 0
x#506 0
x#505 0
x#504 0
x#503 0
x#502 0
x#501 0
x#500 0
x#499 707
x#498 0
x#497 0
x#496 0
x#495 0
x#494 0
x#493 0
x#492 0
x#491 0
x#490 0
x#489 0
x#488 0
x#487 0
x#486 0
x#485 0
x#484 0
x#483 0
x#482 0
x#481 0
x#480 0
x#479 0
x#478 0
x#477 0
x#476 692
x#475 0
x#474 0
x#473 0
x#472 0
x#471 0
x#470 0
x#469 0
x#468 0
x#467 0
x#466 0
x#465 0
x#464 0
x#463 0
x#462 0
x#461 0
x#460 0
x#459 0
x#458 0
x#457 0
x#456 0
x#455 0
x#454 389
x#453 0
x#452 0
x#451 0
x#450 0
x#449 0
x#448 0
x#447 0
x#446 0
x#445 0
x#444 0
x#443 0
x#442 0
x#441 0
x#440 0
x#439 0
x#438 0
x#437 0
x#436 0
x#435 0
x#434 0
x#433 0
x#432 0
x#431 0
x#430 0
x#429 0
x#428 0
x#427 0
x#426 0
x#425 0
x#424 0
x#423 0
x#422 0
x#421 0
x#420 0
x#419 0
x#418 0
x#417 0
x#416 0
x#415 0
x#414 0
x#413 0
x#412 0
x#411 0
x#410 0
x#409 0
x#408 0
x#407 0
x#406 0
x#405 0
x#404 0
x#403 0
x#402 0
x#401 0
x#400 0
x#399 0
x#398 0
x#397 0
x#396 13
x#395 0
x#394 0
x#393 0
x#392 0
x#391 0
x#390 0
x#389 0
x#388 0
x#387 0
x#386 0
x#385 0
x#384 0
x#383 0
x#382 0
x#381 0
x#380 0
x#379 0
x#378 0
x#377 0
x#376 0
x#375 0
x#374 0
x#373 0
x#372 0
x#371 0
x#370 0
x#369 0
x#368 0
x#367 0
x#366 0
x#365 0
x#364 0
x#363 205
x#362 0
x#361 0
x#360 0
x#359 0
x#358 0
x#357 168
x#356 0
x#355 0
x#354 292
x#353 0
x#352 0
x#351 0
x#350 0
x#349 0
x#348 0
x#347 0
x#346 0
x#345 0
x#344 0
x#343 0
x#342 0
x#341 0
x#340 0
x#339 0
x#338 0
x#337 0
x#336 0
x#335 0
x#334 0
x#333 0
x#332 0
x#331 0
x#330 0
x#329 841
x#328 0
x#327 0
x#326 0
x#325 0
x#324 0
x#323 0
x#322 0
x#321 0
x#320 0
x#319 0
x#318 0
x#317 0
x#316 0
x#315 0
x#314 0
x#313 0
x#312 0
x#311 0
x#310 0
x#309 0
x#308 0
x#307 0
x#306 0
x#305 0
x#304 0
x#303 0
x#302 0
x#301 0
x#300 0
x#299 0
x#298 86
x#297 0
x#296 0
x#295 0
x#294 0
x#293 0
x#292 0
x#291 0
x#290 0
x#289 0
x#288 0
x#287 0
x#286 0
x#285 0
x#284 0
x#283 0
x#282 0
x#281 0
x#280 0
x#279 0
x#278 0
x#277 0
x#276 0
x#275 0
x#274 0
x#273 0
x#272 0
x#271 0
x#270 0
x#269 0
x#268 0
x#267 0
x#266 0
x#265 0
x#264 0
x#263 0
x#262 0
x#261 0
x#260 0
x#259 0
x#258 0
x#257 0
x#256 0
x#255 0
x#254 0
x#253 0
x#252 0
x#251 0
x#250 0
x#249 0
x#248 0
x#247 0
x#246 0
x#245 0
x#244 0
x#243 0
x#242 0
x#241 0
x#240 0
x#239 0
x#238 0
x#237 0
x#236 0
x#235 0
x#234 0
x#233 0
x#232 0
x#231 0
x#230 0
x#229 0
x#228 0
x#227 0
x#226 0
x#225 0
x#224 0
x#223 0
x#222 0
x#221 0
x#220 0
x#219 0
x#218 0
x#217 0
x#216 0
x#215 0
x#214 0
x#213 0
x#212 0
x#211 0
x#210 0
x#209 0
x#208 0
x#207 0
x#206 0
x#205 0
x#204 0
x#203 0
x#202 0
x#201 0
x#200 0
x#199 0
x#198 0
x#197 0
x#196 0
x#195 175
x#194 0
x#193 0
x#192 0
x#191 0
x#190 0
x#189 0
x#188 0
x#187 0
x#186 0
x#185 0
x#184 161
x#183 0
x#182 0
x#181 0
x#180 0
x#179 0
x#178 0
x#177 0
x#176 0
x#175 0
x#174 0
x#173 0
x#172 0
x#171 0
x#170 0
x#169 0
x#168 0
x#167 0
x#166 0
x#165 0
x#164 0
x#163 0
x#162 0
x#161 0
x#160 0
x#159 0
x#158 0
x#157 0
x#156 0
x#155 0
x#154 0
x#153 0
x#152 1762
x#151 1022
x#150 0
x#149 0
x#148 0
x#147 0
x#146 0
x#145 0
x#144 0
x#143 0
x#142 0
x#141 0
x#140 0
x#139 0
x#138 0
x#137 0
x#136 0
x#135 0
x#134 0
x#133 0
x#132 0
x#131 0
x#130 0
x#129 0
x#128 0
x#127 0
x#126 0
x#125 0
x#124 0
x#123 0
x#122 0
x#121 0
x#120 0
x#119 0
x#118 0
x#117 0
x#116 0
x#115 0
x#114 0
x#113 0
x#112 0
x#111 0
x#110 0
x#109 0
x#108 0
x#107 0
x#106 0
x#105 0
x#104 0
x#103 0
x#102 0
x#101 0
x#100 0
x#99 1066
x#98 0
x#97 0
x#96 0
x#95 0
x#94 0
x#93 0
x#92 0
x#91 0
x#90 0
x#89 0
x#88 0
x#87 0
x#86 0
x#85 0
x#84 0
x#83 0
x#82 0
x#81 0
x#80 0
x#79 0
x#78 0
x#77 0
x#76 0
x#75 0
x#74 0
x#73 0
x#72 0
x#71 0
x#70 0
x#69 186
x#68 0
x#67 0
x#66 0
x#65 0
x#64 0
x#63 0
x#62 0
x#61 0
x#60 0
x#59 0
x#58 0
x#57 0
x#56 0
x#55 0
x#54 0
x#53 0
x#52 0
x#51 57
x#50 0
x#49 0
x#48 0
x#47 0
x#46 0
x#45 0
x#44 0
x#43 0
x#42 10
x#41 0
x#40 0
x#39 0
x#38 0
x#37 0
x#36 0
x#35 0
x#34 0
x#33 0
x#32 0
x#31 0
x#30 0
x#29 0
x#28 0
x#27 0
x#26 0
x#25 0
x#24 0
x#23 0
x#22 0
x#21 0
x#20 0
x#19 0
x#18 0
x#17 0
x#16 0
x#15 0
x#14 0
x#13 0
x#12 0
x#11 0
x#10 0
x#9 392
x#8 0
x#7 0
x#6 0
x#5 0
x#4 0
x#3 0
x#2 0
x#1 0
